42655
1 0 1 1 1 1 1 1 0 1 1 1 1 0 1 1 1 1 0 1 0 0 0 0 0 0 0 0 0 1 
7 19 2 16 2 12 15 0 16 17 4 17 10 3 19 7 3 10 16 0 11 16 5 0 10 11 0 19 29 2 19 19 4 16 0 6 14 9 16 16 7 9 6 4 9 19 3 2 19 14 0 16 2 16 9 6 11 9 7 7 29 0 7 9 3 11 5 14 19 12 7 12 19 9 5 10 10 5 9 16 10 0 9 7 29 10 6 5 0 7 17 6 7 11 2 3 11 6 0 17 17 15 12 7 4 0 4 16 16 3 19 4 11 12 12 9 11 7 17 9 9 11 17 19 9 16 2 11 19 17 11 16 11 10 5 9 3 3 17 10 12 16 11 11 7 5 0 15 0 12 2 17 10 17 3 12 2 15 3 3 3 17 10 2 5 12 5 4 3 15 5 10 14 14 4 2 17 14 29 14 5 15 15 6 6 3 6 5 0 15 5 15 6 4 6 6 12 15 14 6 
